SDVRP instances/custom_instances/p01_28_splitx10_0.vrp
NAME:p01_28_splitx10_
BEST_KNOWN: 0
COMMENT: 0
DIMENSION: 213
CAPACITY: 1600
EDGE_WEIGHT_FORMAT: FUNCTION
EDGE_WEIGHT_TYPE: EXACT_2D
NODE_COORD_SECTION
1 0.00000 0.00000
2 -29 -44
3 -6 -37
4 -6 -37
5 -6 -37
6 -6 -37
7 -6 -37
8 -6 -37
9 -6 -37
10 -19 16
11 -19 16
12 -19 16
13 -19 16
14 -19 16
15 30 27
16 30 27
17 -12 -47
18 -12 -47
19 -12 -47
20 -12 -47
21 -12 -47
22 -12 -47
23 21 -5
24 21 -5
25 25 -3
26 25 -3
27 25 -3
28 25 -3
29 25 -3
30 -2 -12
31 -2 -12
32 -2 -12
33 -2 -12
34 -2 -12
35 43 3
36 43 3
37 43 3
38 43 3
39 43 3
40 39 -13
41 39 -13
42 39 -13
43 39 -13
44 39 -13
45 39 -13
46 39 -13
47 39 -13
48 -49 38
49 -49 38
50 -27 -43
51 -27 -43
52 -27 -43
53 -27 -43
54 -27 -43
55 -37 41
56 -37 41
57 -37 41
58 28 22
59 28 22
60 28 22
61 -29 26
62 -29 26
63 -29 26
64 46 -50
65 46 -50
66 46 -50
67 -41 -14
68 -41 -14
69 -41 -14
70 -41 -14
71 -41 -14
72 -41 -14
73 18 -35
74 18 -35
75 18 -35
76 -12 -5
77 -12 -5
78 -12 -5
79 -12 -5
80 -12 -5
81 -12 -5
82 -12 -5
83 -15 33
84 -15 33
85 -15 33
86 -15 33
87 -10 -8
88 -10 -8
89 -10 -8
90 -10 -8
91 -10 -8
92 -10 -8
93 2 42
94 2 42
95 2 42
96 2 42
97 2 42
98 2 42
99 7 22
100 7 22
101 7 22
102 -45 -7
103 -45 -7
104 -45 -7
105 -45 -7
106 -45 -7
107 21 -23
108 21 -23
109 21 -23
110 21 -23
111 21 -23
112 -12 -33
113 -12 -33
114 -12 -33
115 -12 -33
116 -12 -33
117 -24 42
118 -24 42
119 -24 42
120 15 40
121 15 40
122 15 40
123 -37 38
124 -37 38
125 -37 38
126 49 47
127 -15 -39
128 -15 -39
129 -15 -39
130 -15 -39
131 -15 -39
132 -25 50
133 -25 50
134 -25 50
135 -25 50
136 -25 50
137 50 43
138 50 43
139 50 43
140 50 43
141 50 43
142 12 -46
143 12 -46
144 12 -46
145 20 24
146 20 24
147 20 24
148 20 24
149 20 24
150 20 24
151 15 -50
152 15 -50
153 15 -50
154 15 -50
155 15 -50
156 -1 -48
157 -1 -48
158 -1 -48
159 -1 -48
160 -1 -48
161 -34 -28
162 -34 -28
163 11 34
164 11 34
165 11 34
166 11 34
167 -3 -41
168 -3 -41
169 -3 -41
170 40 6
171 40 6
172 40 6
173 40 6
174 40 6
175 40 6
176 -46 45
177 -46 45
178 -46 45
179 -46 45
180 -40 -46
181 -40 -46
182 1 1
183 1 1
184 1 1
185 1 1
186 1 1
187 1 1
188 1 1
189 16 10
190 16 10
191 16 10
192 -3 -33
193 -3 -33
194 -3 -33
195 -3 -33
196 -3 -33
197 -3 -33
198 -3 -33
199 -24 13
200 -24 13
201 -24 13
202 -8 34
203 -8 34
204 -8 34
205 -8 34
206 24 -28
207 24 -28
208 24 -28
209 24 -28
210 24 -28
211 24 -28
212 44 41
213 44 41
DEMAND_SECTION
1 0
2 320
3 320
4 160
5 80
6 16
7 16
8 16
9 12
10 320
11 320
12 80
13 16
14 4
15 160
16 80
17 320
18 160
19 16
20 16
21 16
22 12
23 160
24 80
25 320
26 160
27 16
28 16
29 8
30 320
31 160
32 80
33 16
34 4
35 320
36 80
37 16
38 16
39 8
40 320
41 160
42 80
43 16
44 16
45 16
46 16
47 6
48 320
49 320
50 320
51 16
52 16
53 16
54 12
55 320
56 16
57 14
58 160
59 80
60 10
61 320
62 80
63 10
64 320
65 320
66 80
67 320
68 320
69 16
70 16
71 16
72 12
73 160
74 80
75 10
76 320
77 160
78 16
79 16
80 16
81 16
82 6
83 320
84 320
85 16
86 4
87 320
88 80
89 16
90 16
91 16
92 12
93 320
94 160
95 80
96 16
97 16
98 8
99 320
100 320
101 160
102 160
103 80
104 16
105 16
106 8
107 160
108 16
109 16
110 16
111 12
112 320
113 80
114 16
115 16
116 8
117 320
118 160
119 10
120 320
121 80
122 10
123 320
124 160
125 10
126 320
127 160
128 80
129 16
130 16
131 8
132 320
133 16
134 16
135 16
136 12
137 320
138 160
139 16
140 16
141 8
142 320
143 320
144 80
145 160
146 80
147 16
148 16
149 16
150 12
151 160
152 80
153 16
154 16
155 8
156 320
157 160
158 80
159 16
160 14
161 160
162 80
163 320
164 80
165 16
166 4
167 320
168 320
169 80
170 320
171 80
172 16
173 16
174 16
175 12
176 160
177 80
178 16
179 4
180 320
181 160
182 320
183 160
184 80
185 16
186 16
187 16
188 12
189 320
190 320
191 80
192 320
193 320
194 80
195 16
196 16
197 16
198 2
199 320
200 320
201 160
202 320
203 320
204 16
205 14
206 160
207 80
208 16
209 16
210 16
211 2
212 320
213 320
DEPOT_SECTION
1
-1
EOF