SDVRP instances/custom_instances/p01_28_splitx10_0.sol
212 -12 13 11 10 9 199 198 200 -15 212 211 125 136 138 137 139 140 -22 23 27 25 24 26 28 189 190 188 -33 30 5 8 6 7 3 2 4 196 191 192 195 197 194 193 -46 44 45 40 43 41 42 39 38 34 36 35 37 170 174 171 173 172 169 -60 55 56 54 133 131 132 134 135 116 118 117 -62 61 47 48 178 175 177 176 122 124 123 -74 73 72 63 65 64 209 207 208 210 205 206 106 110 108 107 109 -75 76 78 81 90 89 91 88 87 32 29 31 185 184 187 181 182 186 -79 77 80 105 104 101 103 102 67 68 71 70 69 66 161 160 86 -85 84 83 82 201 202 203 204 -93 94 92 96 95 97 119 120 121 165 162 163 164 -98 100 99 146 145 149 148 147 144 14 57 59 58 183 -111 113 20 18 21 17 16 19 167 166 168 -115 114 112 126 130 128 127 129 52 49 51 53 50 1 179 180 -142 143 141 150 154 151 153 152 158 157 159 155 156 0 





OBJ=
1600.348
BEST_KNOWN=
0.000